nbProcess=2;
nbJobs =3;
nbMchs =2;
Process1=[2,2,2];
pidle=[1,2];
EnergyS=[10,30];
TB=[10,15];
x=[
[
[1,1,],
[1,1,],
[1,1,],
],
[
[1,1,],
[1,1,],
[1,1,],
],
];
ptime =[
[
[43,64],
[34,36],
[21,43]
],
[
[36,71],
[53,21],
[35,37]
]
];
power1=[
[
[4.3,3.3,],
[3.2,4,],
[4.9,3.7,],
],
[
[4.2,3.4,],
[4.5,3.5,],
[4,4.4,],
],
];

